%mem=96GB
# opt=(readfc,ts,noeigentest,maxcycles=200,nofreeze) freq=noraman nosymm
guess=read cphf=grid=fine def2tzvp m062x
scf=(xqc,maxconventionalcycles=400)

step 11

0 1
 C                 39.96756400   40.34148000   40.52214100
 H                 39.98948400   41.29516500   39.99326800
 C                 40.42242900   39.19939000   39.62209100
 H                 41.45740200   39.33902900   39.30562100
 H                 40.37926300   38.25280900   40.17857100
 O                 39.56093000   39.15533400   38.51332800
 H                 38.19867000   39.51913000   36.69871700
 C                 38.57731600   40.05874700   40.99972700
 O                 37.61314600   40.73991300   40.75261000
 C                 35.67847200   43.09274100   35.08392300
 H                 36.19503200   44.05285100   35.04161300
 H                 34.68537900   43.25485300   35.50517600
 N                 36.66084600   42.22674400   37.23896900
 H                 36.31689400   42.96934300   37.82646400
 C                 36.44637800   42.10004200   35.87834800
 C                 37.39389100   41.19990700   37.68033500
 H                 37.70444100   41.03742400   38.70065100
 N                 37.65021800   40.42265900   36.65323000
 C                 37.07732000   40.95140600   35.52066400
 H                 37.18831600   40.47773100   34.55736400
 C                 39.70841200   38.40488400   35.34737600
 O                 39.60881400   37.85550200   32.98326900
 C                 39.07190100   37.53722800   34.27466200
 C                 39.08429800   38.90181700   32.35185500
 C                 39.71813100   39.15209900   31.02745400
 O                 38.18466000   39.57503200   32.79864500
 C                 40.77881500   38.37880500   30.56545300
 C                 41.33777600   38.65054600   29.32614700
 O                 35.34472000   34.23310300   40.81952500
 C                 40.83905900   39.68830800   28.55002400
 O                 40.95449200   37.57138700   37.55527300
 C                 39.77974900   40.45969300   29.01176400
 O                 38.96083000   38.23161400   36.52631200
 C                 39.22011000   40.19283600   30.25013000
 O                 36.95417900   32.70581600   40.61264500
 C                 36.56979100   33.82862800   40.42047500
 C                 37.34682200   34.89450200   39.74576900
 C                 36.82895100   36.17472600   39.55774800
 C                 37.59566500   37.13726400   38.92306500
 C                 38.87696100   36.83616200   38.46905400
 C                 39.38898800   35.56067700   38.66502400
 C                 38.62909300   34.59083100   39.29866300
 C                 39.76402700   37.87697800   37.76218900
 H                 39.68519400   39.45634500   35.03062100
 H                 40.74433800   38.11874800   35.53540600
 H                 39.30486800   36.48803200   34.44072400
 H                 37.99091800   37.67331600   34.26139200
 H                 41.15920600   37.57378300   31.17818200
 H                 42.16362700   38.05193100   28.96533700
 H                 39.39224000   41.26765500   28.40536900
 H                 38.39487400   40.77857500   30.63221500
 H                 35.83370000   36.40627900   39.91171700
 H                 37.20201000   38.13732600   38.78586400
 H                 40.39385000   35.36297100   38.31482500
 H                 39.01223200   33.59182100   39.46137800
 H                 34.93107100   33.46702200   41.24052600
 H                 35.56150900   42.72437300   34.06750500
 H                 40.63073100   40.39548800   41.39078600
 H                 38.45913500   39.13244400   41.59383700
 H                 41.27732500   39.89705700   27.58251200

