# m062x/Def2SVP nosymm scf=(xqc,maxconventionalcycles=400) opt=(TS,CalcFC,noeigentest,maxcycles=200,modredundant) freq=NoRaman CPHF=Grid=Fine

continuing search

0 1
C                 40.03889200   40.69556400   39.24799200
H                 39.76179700   41.38120300   38.43343400
C                 40.45033500   39.32972100   38.70806400
H                 41.31368700   39.41592100   38.03042600
H                 40.77298300   38.67361200   39.54020300
O                 39.32914200   38.80907800   38.05824100
H                 37.67131800   38.62380400   36.30570800
C                 38.86663000   40.54179400   40.17329700
O                 37.83661000   41.16922300   40.10701200
C                 36.10734700   43.00112300   35.90266600
H                 35.01573800   43.10683000   35.82554800
H                 36.54362600   43.23953800   34.92591100
N                 36.43348700   41.17168000   37.61427500
H                 36.29028200   41.73017700   38.45228000
C                 36.49235200   41.61843300   36.30462500
C                 36.83277200   39.90271100   37.67196000
H                 36.96141800   39.30816800   38.57027000
N                 37.12458000   39.50551100   36.44847500
C                 36.93674000   40.55039700   35.57240400
H                 37.17094600   40.45639700   34.51353100
C                 39.55944200   37.94803400   35.17035800
O                 39.56261100   37.92922200   32.74312200
C                 38.91009500   37.41604700   33.90403000
C                 39.18996400   39.13003500   32.30770200
C                 39.94769300   39.56358600   31.09735300
O                 38.32486000   39.79284100   32.83038300
C                 40.96445800   38.77674500   30.54738100
C                 41.64625700   39.22367600   29.41832600
O                 35.05787000   34.27850000   41.09516100
C                 41.31360100   40.44919700   28.84019300
O                 40.72507000   37.07129900   37.42100900
C                 40.29815200   41.23368700   29.38970800
O                 38.76679900   37.51542500   36.24544900
C                 39.61540500   40.79209700   30.51892400
O                 36.87943300   33.73975500   42.25986700
C                 36.38403500   34.30396900   41.32050300
C                 37.13528300   35.08891000   40.30507800
C                 36.49422700   35.72054600   39.23463400
C                 37.24197900   36.44983000   38.31301300
C                 38.63033200   36.55906400   38.44897400
C                 39.26580800   35.89617000   39.50331200
C                 38.52602300   35.17342200   40.43191400
C                 39.53294500   37.40495300   37.53167000
H                 39.61193400   39.05551800   35.13510800
H                 40.58031000   37.55966900   35.29410300
H                 39.00851300   36.32591600   33.85460800
H                 37.84415800   37.68457700   33.86825400
H                 41.21261300   37.82282800   31.01182600
H                 42.44111900   38.61388800   28.98712600
H                 40.04025400   42.19110600   28.93525500
H                 38.81802200   41.38313800   30.97083300
H                 35.41338700   35.62609700   39.12695800
H                 36.73930600   36.91208900   37.46183300
H                 40.35459600   35.95345100   39.54845100
H                 39.00415000   34.65371900   41.26374100
H                 34.67084000   33.74358200   41.80390500
H                 36.47287500   43.73797400   36.63086900
H                 40.86997900   41.14248400   39.82007400
H                 38.99159700   39.75854000   40.96092500
H                 41.84978200   40.79582900   27.95527400

B 18 7 F
B 7 33 F
B 33 43 F
