# m062x/Def2SVP nosymm scf=(xqc,maxconventionalcycles=400) opt=(TS,CalcFC,noeigentest,maxcycles=200,modredundant) freq=NoRaman CPHF=Grid=Fine

continuing search

0 1
C       -1         40.14973900   40.67151500   39.62845200
H        0         40.07327600   41.34898900   38.77767600
C       -1         40.39740000   39.24079700   39.16381600
H        0         41.36648600   39.16163900   38.67082900
H        0         40.41141000   38.55944800   40.02746700
O        0         39.36632700   38.89448400   38.27365400
H        0         37.82918900   38.87235000   36.45500300
C        0         38.90438100   40.75566300   40.45367900
O        0         37.95230300   41.45442900   40.20874000
C        0         35.89001100   43.10262900   35.59095200
H        0         34.82853100   43.24041800   35.80216300
H        0         36.02626200   43.10086500   34.51210600
N        0         36.41573600   41.54548200   37.50253800
H        0         36.18189400   42.17335700   38.25666600
C        0         36.39220400   41.82057500   36.14737700
C        0         36.93753400   40.33440300   37.69673200
H        0         37.11599700   39.87277000   38.64843900
N        0         37.23923100   39.81374900   36.53030500
C        0         36.91379700   40.71843700   35.54513000
H        0         37.10588300   40.51430000   34.50391600
C        0         39.51200400   38.11652900   35.23787000
O        0         39.50251100   37.93910000   32.81953900
C        0         38.83514500   37.52033400   34.01662200
C        0         39.14542000   39.11435500   32.30543000
C        0         39.90791700   39.45970800   31.07382100
O        0         38.28874300   39.82141600   32.78061800
C        0         40.91382600   38.63558300   30.57828100
C        0         41.59637400   39.00116300   29.42814800
O        0         35.16248100   34.09461000   40.91978400
C        0         41.27515300   40.18323900   28.77408900
O        0         40.76569600   37.24366700   37.45362200
C        0         40.27053300   41.00541000   29.26939100
O        0         38.72991700   37.76638900   36.35473300
C        0         39.58783700   40.64491300   30.41914100
O        0         36.99482300   33.01611500   41.58844200
C        0         36.49688300   33.89032200   40.93092600
C        0         37.24050200   34.83971500   40.06925400
C        0         36.59055800   35.83466800   39.34001800
C        0         37.32991100   36.70089800   38.55514900
C        0         38.71500400   36.58307200   38.47901700
C        0         39.35478400   35.58451000   39.20022000
C        0         38.62325800   34.71662400   39.99612500
C        0         39.58633100   37.54845200   37.67185800
H        0         39.58047200   39.20839400   35.13201700
H        0         40.51936100   37.71817800   35.36456600
H        0         38.90849600   36.43566500   34.03484000
H        0         37.78625200   37.81358300   33.96640800
H        0         41.15619000   37.71815600   31.09580300
H        0         42.38005800   38.36321400   29.04160300
H        0         40.02161900   41.92603800   28.75833300
H        0         38.80212100   41.26771500   30.82519200
H        0         35.51382900   35.91876500   39.39273500
H        0         36.81983000   37.46210800   37.97790000
H        0         40.43018900   35.50531100   39.10918300
H        0         39.10611300   33.93376600   40.56634700
H        0         34.78117900   33.42726000   41.50683300
H        0         36.43530300   43.95353100   36.00253200
H        0         40.98778000   40.97958500   40.26278700
H        0         38.88482400   40.09483200   41.34274100
H        0         41.80964000   40.46511100   27.87597200

B 18 7 F
B 7 33 F
B 33 43 F


