# m062x/Def2TZVP nosymm scf=xqc freq=NoRaman CPHF=Grid=Fine SCRF=(Solvent=1,2-EthaneDiol,Read)

tpl

0 1
{atoms}

PDENS=7.0
