# scf=(xqc,maxconventionalcycles=400) opt=(TS,CalcFC,noeigentest,maxcycles=200,modredundant) freq=noraman nosymm geom=connectivity cphf=grid=fine m062x/def2svp SCRF=(Solvent=MethylPropanoate,Read)

Last conformation from file tests/test_data/gausslog2com/acyl-ts_mp.log

-1  1
N       -1         42.845870   36.304945   36.333459
H        0         41.892511   36.536071   36.596938
C       -1         42.942201   34.934079   35.701788
H        0         43.794798   34.403410   36.142868
C        0         41.665939   34.111490   35.928103
H        0         41.530834   33.951076   37.007241
H        0         40.806479   34.671156   35.528398
C       -1         43.142834   35.018139   34.172037
O       -1         42.420922   35.785042   33.483654
N       -1         44.616009   42.804981   40.228973
H        0         45.172463   42.205364   39.621958
C       -1         43.287964   42.902033   39.713990
H        0         42.691711   43.545297   40.377169
C        0         43.297324   43.513993   38.273871
H        0         43.560374   44.578309   38.388738
H        0         44.147902   43.042788   37.756597
C        0         42.089929   43.365709   37.394428
C        0         40.847028   43.932864   37.551823
H        0         40.483899   44.592209   38.338696
N        0         40.019218   43.571404   36.518210
H        0         39.068090   43.898666   36.369475
C        0         40.713487   42.774066   35.647083
C        0         42.021185   42.591114   36.175676
C        0         42.948982   41.828177   35.442688
H        0         43.959398   41.665835   35.824013
C        0         42.560049   41.275933   34.230203
H        0         43.272162   40.687086   33.647804
C        0         40.319451   42.218488   34.419682
H        0         39.309390   42.375126   34.035195
C        0         41.256873   41.470917   33.722987
H        0         40.978168   40.997339   32.779068
C       -1         42.671046   41.525974   39.641100
O        0         43.260776   40.540092   39.245289
N       -1         41.356973   41.540020   40.038993
H        0         40.985484   42.414374   40.388632
C       -1         40.451045   40.389954   40.070673
H        0         39.578898   40.737420   40.645091
C        0         39.931189   39.956663   38.696787
H        0         39.567735   40.855428   38.159609
H        0         40.763885   39.547695   38.096654
O        0         38.897748   39.019369   38.850541
H        0         37.720019   39.796028   37.324544
C       -1         41.014839   39.273957   40.938067
O        0         41.089226   39.453000   42.148016
N       -1         41.456102   38.157053   40.360983
H        0         41.344965   38.074277   39.350902
C       -1         42.097984   37.084990   41.007999
H        0         41.442600   36.667994   41.796349
C        0         42.454468   35.993436   39.999392
H        0         41.666050   35.930141   39.228960
H        0         43.382658   36.265493   39.473322
C        0         42.636304   34.633381   40.659712
H        0         41.725957   34.343172   41.207076
H        0         43.454813   34.659962   41.393547
S        0         43.007506   33.309612   39.457755
C        0         41.406244   32.458906   39.427242
H        0         41.209699   31.953728   40.386238
H        0         40.588503   33.159510   39.205341
H        0         41.451865   31.707399   38.628649
C       -1         36.134029   38.492985   45.436935
H        0         35.365128   38.785809   46.166923
C        0         35.516299   38.192759   44.067198
H        0         34.935137   39.064426   43.728690
H        0         34.797297   37.363265   44.165576
C        0         36.540183   37.839905   43.026918
C        0         37.155574   38.691764   42.138719
H        0         36.969518   39.752550   41.974561
N        0         38.101365   38.024012   41.401732
H        0         38.559657   38.394551   40.561602
C        0         38.105614   36.709351   41.777328
C        0         37.131424   36.544642   42.799303
C        0         36.902392   35.258766   43.325627
H        0         36.155636   35.106306   44.108254
C        0         37.641712   34.190824   42.837269
H        0         37.462146   33.185284   43.221649
C        0         38.875548   35.635926   41.304186
H        0         39.618994   35.786770   40.518056
C        0         38.628176   34.381375   41.843356
H        0         39.196050   33.520906   41.482448
C       -1         29.739079   43.954980   37.188014
H        0         29.881366   43.670415   36.136614
C        0         31.093900   44.188351   37.851244
H        0         31.002546   44.331884   38.939299
H        0         31.553183   45.116931   37.470493
C        0         32.133134   43.081343   37.607871
O        0         31.894380   42.192593   36.784733
O        0         33.220948   43.210591   38.268908
C       -1         34.913020   44.308938   35.569001
H        0         34.804668   44.558896   36.638333
C        0         34.723898   42.787925   35.373329
H        0         33.674308   42.548250   35.597305
H        0         34.906620   42.505254   34.327004
N        0         35.184722   41.746776   37.585851
H        0         34.304969   42.311828   37.982735
C        0         35.562292   41.940575   36.277345
C        0         36.049860   40.912129   38.157572
H        0         36.015504   40.572386   39.189689
N        0         36.967245   40.544696   37.262195
C        0         36.681933   41.173493   36.073933
H        0         37.274333   41.000520   35.181884
C       -1         36.325021   44.739889   35.051018
O       -1         37.361002   44.504109   35.624042
C        0         39.424415   38.727066   35.487889
O        0         40.373011   38.018894   33.434827
C        0         39.326915   37.715252   34.360025
O        0         45.327625   40.267637   29.084237
C        0         40.249259   37.610073   32.185556
O        0         43.836721   39.999141   27.445642
C        0         41.338750   38.138360   31.303498
O        0         39.332074   36.934958   31.778424
C        0         42.528883   38.647917   31.832648
C        0         43.472605   39.206566   30.974892
O        0         34.060116   34.317070   40.102466
C        0         43.224428   39.255910   29.598409
O        0         40.282778   37.348575   37.688223
C        0         42.045270   38.721192   29.070042
O        0         38.430805   38.508219   36.433624
C        0         41.105745   38.155738   29.925632
O        0         35.072409   32.651080   39.007956
C       -1         44.246973   39.890002   28.712021
C       -1         35.030065   33.818080   39.333971
C        0         36.046332   34.842255   38.932530
C        0         35.810730   36.214942   39.090961
C        0         36.782140   37.139416   38.717554
C        0         38.016028   36.706876   38.224861
C        0         38.240842   35.338112   38.041396
C        0         37.258443   34.411337   38.382956
C        0         39.127844   37.652722   37.878695
H        0         39.328599   39.742582   35.059197
H        0         40.442512   38.666599   35.919821
H        0         39.454739   36.688049   34.743945
H        0         38.355555   37.770705   33.849289
H        0         42.683092   38.604722   32.910970
H        0         44.410590   39.616943   31.354285
H        0         41.868531   38.758881   27.995226
H        0         40.167861   37.751643   29.543251
H        0         34.869256   36.554821   39.523785
H        0         36.593422   38.205067   38.836112
H        0         39.199656   35.011239   37.633853
H        0         37.426901   33.341672   38.248631
H        0         29.197154   43.130589   37.673977
H        0         29.111813   44.856231   37.229556
H        0         33.445202   33.597824   40.317799
H        0         44.545455   40.413988   26.928683
H        0         41.701032   33.132623   35.425925
H        0         34.153269   44.848421   34.989047
H        0         36.865817   39.309530   45.358947
H        0         36.660497   37.610120   45.828772
H        0         43.004465   37.438264   41.530823
H        0         43.886668   34.351265   33.685575
H        0         36.343000   45.268317   34.070260
H        0         45.053054   43.722843   40.269627
H        0         43.351127   36.252139   37.217861

1 2 1.0 3 1.0 153 1.0
2
3 4 1.0 5 1.0 8 1.0
4
5 6 1.0 7 1.0 145 1.0
6
7
8 9 2.0 150 1.0
9
10 11 1.0 12 1.0 152 1.0
11
12 13 1.0 14 1.0 32 1.0
13
14 15 1.0 17 1.0 16 1.0
15
16
17 18 2.0 23 1.0
18 19 1.0 20 1.0
19
20 21 1.0 22 1.0
21
22 23 1.5 28 1.5
23 24 2.0
24 25 1.0 26 1.5
25
26 27 1.0 30 1.5
27
28 29 1.0 30 2.0
29
30 31 1.0
31
32 33 2.0 34 1.5
33
34 36 1.0 35 1.0
35
36 37 1.0 38 1.0 43 1.0
37
38 40 1.0 41 1.0 39 1.0
39
40
41
42 98 1.0
43 44 2.0 45 1.5
44
45 47 1.0 46 1.0
46
47 48 1.0 49 1.0 149 1.0
48
49 50 1.0 51 1.0 52 1.0
50
51
52 53 1.0 54 1.0 55 1.0
53
54
55 56 1.0
56 57 1.0 58 1.0 59 1.0
57
58
59
60 61 1.0 62 1.0 147 1.0 148 1.0
61
62 63 1.0 64 1.0 65 1.5
63
64
65 66 2.0 71 1.5
66 67 1.0 68 1.5
67
68 70 1.0 69 1.0
69
70 71 1.5 76 1.5
71 72 2.0
72 73 1.0 74 1.5
73
74 75 1.0 78 1.5
75
76 77 1.0 78 1.5
77
78 79 1.0
79
80 81 1.0 82 1.0 141 1.0 142 1.0
81
82 85 1.0 84 1.0 83 1.0
83
84
85 86 1.5 87 1.5
86
87
88 89 1.0 90 1.0 101 1.0 146 1.0
89
90 91 1.0 92 1.0 95 1.0
91
92
93 94 1.0 95 1.0 96 1.5
94
95 99 2.0
96 97 1.0 98 2.0
97
98 99 1.0
99 100 1.0
100
101 102 2.0 151 1.0
102
103 105 1.0 117 1.0 129 1.0 130 1.0
104 105 1.0 107 1.0
105 132 1.0 131 1.0
106 120 2.0
107 109 1.0 110 2.0
108 120 1.5 144 1.0
109 111 1.5 118 1.5
110
111 112 1.5 133 1.0
112 114 1.5 134 1.0
113 121 1.5 143 1.0
114 116 1.5 120 1.0
115 128 2.0
116 118 1.5 135 1.0
117
118 136 1.0
119 121 1.5
120
121 122 1.0
122 123 1.0 127 1.5
123 124 2.0 137 1.0
124 125 1.5 138 1.0
125 126 1.5 128 1.0
126 127 1.5 139 1.0
127 140 1.0
128
129
130
131
132
133
134
135
136
137
138
139
140
141
142
143
144
145
146
147
148
149
150
151
152
153

B 41 42 F
B 42 117 F
B 117 128 F
B 128 41 F

PDENS=7.0




