# m062x/Def2TZVP nosymm scf=xqc opt=CalcFC freq=NoRaman SCRF=(Solvent=PerFluoroBenzene)

test BDE effect solvent

0 1

PDENS=7.0

