# m062x/Def2TZVP nosymm scf=xqc opt=CalcFC freq=NoRaman SCRF=(Solvent=PerFluoroBenzene)

Low energy conformation from file tests/test_data/gausslog2com/nylon66_dimer_49_69_f2_fb.log

0  2
C             -0.309357    0.404399    1.298126
C              0.704284    0.793414    2.364478
C              0.049778    1.132594    3.689556
C              0.233694    2.428625    5.762858
C              0.760261    1.467493    6.821428
C              0.260332    1.818168    8.216330
O             -0.964778    0.569946    4.075605
N              0.668344    2.083408    4.421320
H              1.525182    2.478273    4.071130
C              0.363296   -0.017012   -0.001260
C             -0.652511   -0.405893   -1.061148
C             -0.021707   -0.835502   -2.355868
C              0.817290    0.240332   11.731255
C              0.278236    1.205872   10.681406
C              0.785050    0.868288    9.285863
O              1.169141   -0.887413   -2.582727
O             -0.944628   -1.170658   -3.274910
H             -0.480915   -1.438707   -4.082418
H             -0.931202   -0.406809    1.680814
H             -0.980979    1.247356    1.111111
H              1.381044   -0.046214    2.553443
H              1.322225    1.626784    2.023371
H             -0.856876    2.423815    5.768570
H              0.565435    3.446288    5.972463
H              0.444574    0.454718    6.557316
H              1.854190    1.478845    6.805015
H             -0.834405    1.801299    8.222965
H              0.556942    2.842332    8.466155
H              1.032029   -0.860982    0.184248
H              0.988875    0.794260   -0.381388
H             -1.289275   -1.226602   -0.719714
H             -1.330850    0.421582   -1.286482
H              0.508506   -0.780120   11.500102
H              1.907894    0.267524   11.729322
H             -0.815334    1.177952   10.696012
H              0.580451    2.220065   10.954825
H              0.495398   -0.156533    9.030099
H              1.879784    0.889707    9.282572
C              0.323179    2.780662   17.426252
C              0.977875    3.802449   18.341389
C              0.343537    3.848059   19.718803
C              0.071325    5.167081   21.768371
C              1.041602    4.577100   22.784405
C              0.535367    4.725592   24.212721
O             -0.273216    2.902628   20.187643
N              0.517034    5.002922   20.396596
H              1.076385    5.726609   19.976394
C              1.000223    2.727705   16.062665
C              0.396419    1.733431   15.145872
C              0.978613    1.497823   13.833217
C              1.958590    3.717815   27.705056
C              0.990228    4.290922   26.676247
C              1.496011    4.150412   25.246174
O              1.970880    2.110902   13.438553
N              0.370028    0.549075   13.074225
H             -0.474501    0.123043   13.417447
H              0.359314    1.798795   17.900346
H             -0.734377    3.027334   17.302963
H              2.034926    3.553857   18.481883
H              0.949634    4.797199   17.890257
H             -0.900303    4.680178   21.860547
H             -0.070680    6.233050   21.950755
H              1.189493    3.519934   22.548720
H              2.012885    5.070124   22.680778
H             -0.435850    4.228591   24.305627
H              0.362094    5.784955   24.431028
H              2.068717    2.505536   16.173486
H              0.974526    3.716210   15.585194
H             -0.484977    1.180040   15.446697
H              2.137687    2.661976   27.485600
H              2.925101    4.220252   27.612017
H              0.023690    3.785091   26.775400
H              0.814074    5.348272   26.902307
H              1.671809    3.092393   25.025529
H              2.466289    4.649961   25.153868
N              1.528852    3.821984   29.098554
H              0.639154    3.349415   29.218256
H              1.365377    4.795059   29.334365

PDENS=7.0

