# m062x/Def2SVP nosymm scf=xqc opt guess=mix freq=noraman CPHF=Grid=Fine

radical calculation of fragment 1 from fragment pair [14, 15] and tests/test_data/gauss_fragment/pet_mono_1_tzvp.com

0 2
O       3.601135    6.855796    0.997706
H       3.115034    6.739670    1.820294
O       1.590367    2.611379    1.211502
C       2.476652    4.874278    0.189812
H       1.915038    4.447272   -0.642497
H       3.373719    4.277065    0.355894
C       2.820754    6.323321   -0.047612
H       3.414902    6.402771   -0.958080
H       1.900093    6.900475   -0.189310
C       1.289402    3.621062    1.785921
O       1.668500    4.839164    1.375131


