# m062x/Def2SVP nosymm scf=xqc opt guess=mix freq=noraman

radical calculation of fragment 2 from fragment pair [12, 11] and tests/test_data/gauss_fragment/tbut.com

0 3
C       8.817788   10.934479    3.720782
C       6.865348   10.920899    8.146709
C       8.809950   10.588761    5.176411
C       7.730682   10.263842    5.875006
C       7.717336    9.933596    7.335103
C       4.911701   10.913353   12.577254
C       6.853285   10.591053    9.606848
C       5.776736   10.256758   10.305803
C       5.764996    9.926833   11.765957
C       4.900339   10.583804   14.037480
H       5.842451   10.925221    7.761334
H       7.267757   11.927077    7.994230
H       5.312827   11.919954   12.424306
H       3.888770   10.916197   12.191988
H       9.771604   10.606674    5.684929
H       7.818366   10.612011   10.111212
H       6.765668   10.247165    5.370523
H       5.865523   10.605637   14.541580
H       4.811618   10.235600    9.801551
H       7.314590    8.927548    7.487707
H       8.740013    9.928696    7.721230
H       5.363692    8.920267   11.918671
H       6.787854    9.923768   12.151424
H       7.812517   10.892451    3.301852
H       9.452934   10.246780    3.157943
H       9.215538   11.938708    3.558332


