# m062x/Def2SVP nosymm scf=xqc opt guess=mix freq=noraman

radical calculation of fragment 1 from fragment pair [13, 12] and tests/test_data/gauss_fragment/tbut.com

0 2
C       2.959350   10.905951   17.008189
C       3.812739    9.919487   16.196923
C       1.006618   10.898843   21.438885
C       2.947567   10.576027   18.468344
C       1.871019   10.241570   19.167221
C       1.858892    9.911720   20.627359
C       0.993195   10.568592   22.898980
C      -0.086060   10.243333   23.597434
C      -0.093980    9.897602   25.053060
H      -0.491445    8.893250   25.215450
H      -0.729407   10.585103   25.615824
H       0.911225    9.939930   25.472119
H       3.360591   11.912545   16.855491
H       1.936508   10.908947   16.622681
H       1.409163   11.904977   21.286321
H      -0.016022   10.903525   21.052657
H       3.912647   10.597339   18.972662
H       1.958139   10.585572   23.403585
H       0.905979   10.220464   18.662784
H      -1.047643   10.225119   23.088791
H       3.411674    8.912861   16.349862
H       4.835660    9.916712   16.582216
H       1.456675    8.905459   20.779799
H       2.881754    9.907607   21.012827


