# m062x/Def2TZVP nosymm scf=(xqc,maxconventionalcycles=400) opt=(TS,CalcFC,noeigentest,maxcycles=200,NoFreeze) freq=NoRaman CPHF=Grid=Fine SCRF=(Solvent=1,2-EthaneDiol,Read)

Last conformation from file tieg5ipatse_ts_ircr_opt_scan2.log, adjusted 37-38 distance based on tieg5pdc2tsb_ts_ircr_opt_ts.log

0  1
 O                  1.92578100    0.87476600   -0.03130400
 Ti                 0.57127300   -0.36964400    1.07727300
 O                  0.29961161   -1.44535302   -3.05089271
 O                  1.99841100   -1.65049000    1.16953100
 O                 -0.39040600    1.17092500    1.23885600
 C                 -0.11579400    2.53690800    1.36466500
 C                 -0.39383400    3.24826000    0.04991500
 C                  3.34165900    0.92349900    0.00683800
 C                  3.77291000    2.09723100    0.86904300
 O                  5.17695500    2.11983600    1.04535800
 C                  2.50976400   -1.92928400    2.44797800
 C                  2.78391400   -0.59585200    3.12506700
 O                  1.68501100    0.27323400    2.79874300
 C                  1.66034661   -1.80001702   -3.28695171
 C                  2.46103561   -2.10466802   -2.03505571
 O                  1.77730761   -3.05076402   -1.22318671
 H                  3.73638800   -0.01083600    0.41440300
 H                  3.72614700    1.04166400   -1.01108300
 H                  3.40542900    3.03037400    0.43010900
 H                  3.32973400    1.99647500    1.86083200
 H                  2.63525661   -1.19139002   -1.46446471
 H                  1.77388000   -2.49597300    3.03177300
 H                  3.42923100   -2.51714000    2.38210500
 H                  2.87960800   -0.68377200    4.20676400
 H                  3.68379400   -0.13004800    2.72313700
 H                 -0.74493000    2.96542400    2.15442300
 H                  0.93242300    2.69246100    1.64177600
 H                 -1.43442200    3.08044400   -0.24627700
 H                  0.25048100    2.82917000   -0.72386900
 O                 -0.09614100    4.63097700    0.13519700
 H                  2.00798361   -2.83825302   -0.29884171
 H                 -0.72966000    5.04703900    0.72891700
 H                  5.59279500    2.33771700    0.20466000
 H                  1.01881800    0.31472100    3.53558600
 O                  0.92879833    0.58611501   -2.32257625
 H                  0.32193763   -1.95200397   -0.86968054
 C                  0.06597439   -0.32970269   -2.29737632
 O                  0.03879600   -1.02577400   -0.72559200
 C                 -1.70018161    1.38940731   -2.75396632
 C                 -1.38907361    0.06654831   -2.47726632
 C                 -3.02363361    1.77815631   -2.93486532
 C                 -2.40564461   -0.87385669   -2.38667532
 C                 -4.04039161    0.84350731   -2.84238132
 C                 -3.72702761   -0.48812969   -2.56849632
 H                 -2.17937261   -1.90956569   -2.17015532
 C                 -4.78120661   -1.53020469   -2.45886932
 H                 -5.07129361    1.13734231   -2.98089832
 O                 -4.56969561   -2.69360369   -2.22347632
 O                 -6.01650661   -1.05114669   -2.64941332
 H                 -6.64089361   -1.78724069   -2.56269932
 H                  2.16557561   -1.00515702   -3.83811071
 H                  3.43168061   -2.49846402   -2.35106971
 H                  1.59802861   -2.68649002   -3.91657671
 O                 -0.55627900   -1.35186200    2.10240100
 C                 -1.62994600   -1.05312000    2.95050800
 C                 -1.15511000   -0.85517300    4.37479900
 O                 -0.31531800    0.29598000    4.51040300
 H                  1.57232213    0.81852131   -0.98377952
 H                 -0.54687800   -1.70444800    4.68528200
 H                 -2.01122500   -0.76828000    5.04675500
 H                 -0.84263600    1.09078900    4.36351200
 H                 -2.14041300   -0.14631500    2.60363700
 H                 -2.34593400   -1.88010700    2.93417800
 H                 -3.25795961    2.81241731   -3.14891632
 H                 -0.89578361    2.10860131   -2.82792832

PDENS=7.0


