# m062x/Def2SVP nosymm scf=xqc opt

narrow results from confab

0 1
${atoms}



