# m062x/Def2TZVP nosymm scf=xqc opt freq=NoRaman CPHF=Grid=Fine SCRF=(Solvent=NitroBenzene,Read) geom=connectivity

pchl monomer (segment) with 2nd degree amide end groups

0 1
C          -8.667   7.463  -1.598
H          -8.397   6.976  -2.533
C          -7.595   8.390  -1.080
O          -7.753   9.032  -0.047
N          -6.471   8.473  -1.818
H          -5.589   8.261  -1.381
C          -6.461   8.952  -3.191
C          -6.479   7.796  -4.191
C          -7.646   9.885  -3.410
H          -5.531   9.511  -3.322
C          -6.497   8.320  -5.623
H          -7.374   7.193  -4.005
H          -5.610   7.160  -4.017
C          -7.672  10.411  -4.846
H          -8.577   9.343  -3.222
H          -7.598  10.716  -2.702
C          -7.685   9.250  -5.850
H          -6.535   7.487  -6.327
H          -5.568   8.863  -5.823
H          -6.772  11.009  -5.019
H          -7.676   9.644  -6.868
H          -8.619   8.695  -5.721
C          -8.898  11.277  -5.067
O          -9.224  11.662  -6.184
N          -9.587  11.624  -3.967
H         -10.393  12.219  -4.062
C          -9.208  11.149  -2.653
H          -8.196  11.470  -2.405
H          -8.864   6.706  -0.840
H          -9.241  10.060  -2.612
H          -9.901  11.555  -1.921
H          -9.581   8.039  -1.740

1 2 1.0 3 1.0 29 1.0 32 1.0
2
3 4 2.0 5 1.5
4
5 6 1.0 7 1.0
6
7 8 1.0 9 1.0 10 1.0
8 11 1.0 12 1.0 13 1.0
9 14 1.0 15 1.0 16 1.0
10
11 17 1.0 18 1.0 19 1.0
12
13
14 17 1.0 20 1.0 23 1.0
15
16
17 21 1.0 22 1.0
18
19
20
21
22
23 24 2.0 25 1.5
24
25 26 1.0 27 1.0
26
27 28 1.0 30 1.0 31 1.0
28
29
30
31
32

PDENS=7.0


