# m062x/Def2TZVP nosymm scf=xqc opt freq=NoRaman CPHF=Grid=Fine SCRF=(Solvent=NitroBenzene,Read) geom=connectivity

pchl monomer (segment) with 2nd degree amide end groups

0 1
 C                 -5.50107900    7.51665800    0.23246600
 H                 -6.56580400    7.52194300    0.48664000
 C                 -5.32435500    8.03200200   -1.18331800
 O                 -4.21989700    8.08226600   -1.71475600
 N                 -6.44359500    8.44729400   -1.80711100
 H                 -7.32775100    8.33757600   -1.33537700
 C                 -6.45110200    8.95123300   -3.17125000
 C                 -6.49209500    7.81390000   -4.19069900
 C                 -7.63218600    9.89690300   -3.35603600
 H                 -5.51834200    9.50558400   -3.30553000
 C                 -6.52831600    8.36203900   -5.61388900
 H                 -7.38855700    7.21365900   -4.00245300
 H                 -5.62545800    7.16793700   -4.04163000
 C                 -7.67373900   10.44792900   -4.77962200
 H                 -8.56476600    9.35763800   -3.16357600
 H                 -7.56895700   10.71370700   -2.63361300
 C                 -7.71197200    9.30539500   -5.80564100
 H                 -6.58430300    7.54213300   -6.33132900
 H                 -5.59833700    8.90180000   -5.81922100
 H                 -6.77106200   11.04079300   -4.95757100
 H                 -7.71520400    9.71743300   -6.81708200
 H                 -8.64791000    8.75383700   -5.67346800
 C                 -8.89305400   11.32843900   -4.98096600
 O                 -9.99599600   11.01565700   -4.54733900
 N                 -8.69407700   12.45162400   -5.69857400
 H                 -7.77123100   12.63911200   -6.05946900
 C                 -9.77978800   13.33217900   -6.09604700
 H                -10.46785400   13.39305700   -5.24844200
 H                 -5.13730184    6.51298118    0.30457025
 H                -10.31113480   12.93123978   -6.93379298
 H                 -9.39968831   14.30836063   -6.31397740
 H                 -4.98644360    8.15629521    0.91869821

 1 2 1.0 3 1.0 29 1.0 32 1.0
 2
 3 4 2.0 5 1.5
 4
 5 6 1.0 7 1.0
 6
 7 8 1.0 9 1.0 10 1.0
 8 11 1.0 12 1.0 13 1.0
 9 14 1.0 15 1.0 16 1.0
 10
 11 17 1.0 18 1.0 19 1.0
 12
 13
 14 17 1.0 20 1.0 23 1.0
 15
 16
 17 21 1.0 22 1.0
 18
 19
 20
 21
 22
 23 24 2.0 25 1.5
 24
 25 26 1.0 27 1.0
 26
 27 28 1.0 30 1.0 31 1.0
 28
 29
 30
 31
 32

PDENS=7.0


