# m062x/Def2SVP nosymm scf=xqc opt

narrow results from confab

0 1
C          -4.243   0.027  -1.420
C          -2.975  -0.719  -0.982
C          -1.840   0.252  -0.620
C          -0.566  -0.487  -0.180
C           0.567   0.487   0.181
C           1.841  -0.252   0.621
C           2.976   0.719   0.983
C           4.244  -0.026   1.420
H          -5.058  -0.688  -1.680
H          -4.048   0.659  -2.317
H          -4.620   0.690  -0.609
H          -2.642  -1.393  -1.807
H          -3.213  -1.362  -0.102
H          -2.179   0.926   0.202
H          -1.609   0.895  -1.503
H          -0.227  -1.161  -1.003
H          -0.797  -1.130   0.702
H           0.228   1.161   1.003
H           0.798   1.129  -0.702
H           2.180  -0.926  -0.202
H           1.610  -0.895   1.504
H           2.643   1.393   1.807
H           3.213   1.362   0.102
H           5.059   0.688   1.679
H           4.621  -0.690   0.608
H           4.050  -0.658   2.317




