# m062x/Def2SVP nosymm scf=xqc opt

narrow results from confab

0 1
O           1.957   7.165  -0.066
H           1.499   7.049  -0.903
C          -0.379   2.476   4.986
H          -0.602   1.552   5.500
C           0.372   2.472   3.824
H           0.750   1.550   3.403
O           1.890   2.586   1.448
C           2.451   4.822   0.182
H           1.823   4.550  -0.668
H           3.251   4.082   0.261
C           3.003   6.224   0.024
H           3.588   6.491   0.904
H           3.666   6.265  -0.846
C           0.652   3.669   3.173
C           1.465   3.603   1.924
O          -2.015   4.999   7.069
C          -0.850   3.682   5.498
C          -1.663   3.747   6.747
O           1.676   4.810   1.382
C           0.181   4.874   3.685
H           0.405   5.799   3.171
C          -0.569   4.879   4.847
H          -0.948   5.801   5.268
O          -1.973   2.788   7.401
C          -1.833   5.064   9.428
H          -1.279   4.127   9.393
H          -2.391   5.089  10.370
C          -2.795   5.134   8.258
H          -3.328   6.085   8.248
H          -3.534   4.331   8.300
O          -0.880   6.101   9.353
H          -1.314   6.942   9.519



