# m062x/Def2SVP nosymm scf=xqc opt

narrow results from confab

0 1
O           4.889   5.396   1.890
H           4.366   5.512   2.687
C          -0.379   2.476   4.986
H          -0.602   1.552   5.500
C           0.372   2.472   3.824
H           0.750   1.550   3.403
O           1.467   2.670   1.169
C           3.010   4.709   0.552
H           2.399   4.965  -0.315
H           3.420   3.709   0.391
C           4.105   5.733   0.767
H           4.776   5.741  -0.091
H           3.666   6.731   0.860
C           0.652   3.669   3.173
C           1.465   3.603   1.924
O          -2.522   4.775   6.751
C          -0.850   3.682   5.498
C          -1.663   3.747   6.747
O           2.203   4.704   1.730
C           0.181   4.874   3.685
H           0.405   5.799   3.171
C          -0.569   4.879   4.847
H          -0.948   5.801   5.268
O          -1.565   2.969   7.657
C          -4.467   3.902   7.779
H          -5.142   3.991   8.631
H          -4.069   2.883   7.771
C          -3.333   4.898   7.921
H          -2.737   4.687   8.810
H          -3.706   5.922   7.997
O          -5.232   4.179   6.628
H          -4.711   3.978   5.846



